Algorithm:hc
Number of runs:30
Number of iterations:1024
Number of patterns:10
Name of file:p01_c.txt
192.23
205.37
216.93
223.90
223.90
228.40
230.67
230.67
232.10
232.10
232.10
232.10
232.10
232.10
232.10
232.10
232.10
232.10
232.10
232.10
232.10
232.10
232.10
232.10
232.10
232.10
232.10
232.10
232.10
232.10
232.10
232.10
232.10
232.10
232.10
232.10
232.10
232.10
232.10
232.10
232.10
232.10
232.10
232.10
232.10
232.10
232.10
232.10
232.10
232.10
232.10
232.10
232.10
232.10
232.10
232.10
232.10
232.10
232.10
232.10
232.10
232.10
232.10
232.10
232.10
232.10
232.10
232.10
232.10
232.10
232.10
232.10
232.10
232.10
232.10
232.10
232.10
232.10
232.10
232.10
232.10
232.10
232.10
232.10
232.10
232.10
232.10
232.10
232.10
232.10
232.10
232.10
232.10
232.10
232.10
232.10
232.10
232.10
232.10
232.10
232.10
232.10
232.10
232.10
232.10
232.10
232.10
232.10
232.10
232.10
232.10
232.10
232.10
232.10
232.10
232.10
232.10
232.10
232.10
232.10
232.10
232.10
232.10
232.10
232.10
232.10
232.10
232.10
232.10
232.10
232.10
232.10
232.10
232.10
232.10
232.10
232.10
232.10
232.10
232.10
232.10
232.10
232.10
232.10
232.10
232.10
232.10
232.10
232.10
232.10
232.10
232.10
232.10
232.10
232.10
232.10
232.10
232.10
232.10
232.10
232.10
232.10
232.10
232.10
232.10
232.10
232.10
232.10
232.10
232.10
232.10
232.10
232.10
232.10
232.10
232.10
232.10
232.10
232.10
232.10
232.10
232.10
232.10
232.10
232.10
232.10
232.10
232.10
232.10
232.10
232.10
232.10
232.10
232.10
232.10
232.10
232.10
232.10
232.10
232.10
232.10
232.10
232.10
232.10
232.10
232.10
232.10
232.10
232.10
232.10
232.10
232.10
232.10
232.10
232.10
232.10
232.10
232.10
232.10
232.10
232.10
232.10
232.10
232.10
232.10
232.10
232.10
232.10
232.10
232.10
232.10
232.10
232.10
232.10
232.10
232.10
232.10
232.10
232.10
232.10
232.10
232.10
232.10
232.10
232.10
232.10
232.10
232.10
232.10
232.10
232.10
232.10
232.10
232.10
232.10
232.10
232.10
232.10
232.10
232.10
232.10
232.10
232.10
232.10
232.10
232.10
232.10
232.10
232.10
232.10
232.10
232.10
232.10
232.10
232.10
232.10
232.10
232.10
232.10
232.10
232.10
232.10
232.10
232.10
232.10
232.10
232.10
232.10
232.10
232.10
232.10
232.10
232.10
232.10
232.10
232.10
232.10
232.10
232.10
232.10
232.10
232.10
232.10
232.10
232.10
232.10
232.10
232.10
232.10
232.10
232.10
232.10
232.10
232.10
232.10
232.10
232.10
232.10
232.10
232.10
232.10
232.10
232.10
232.10
232.10
232.10
232.10
232.10
232.10
232.10
232.10
232.10
232.10
232.10
232.10
232.10
232.10
232.10
232.10
232.10
232.10
232.10
232.10
232.10
232.10
232.10
232.10
232.10
232.10
232.10
232.10
232.10
232.10
232.10
232.10
232.10
232.10
232.10
232.10
232.10
232.10
232.10
232.10
232.10
232.10
232.10
232.10
232.10
232.10
232.10
232.10
232.10
232.10
232.10
232.10
232.10
232.10
232.10
232.10
232.10
232.10
232.10
232.10
232.10
232.10
232.10
232.10
232.10
232.10
232.10
232.10
232.10
232.10
232.10
232.10
232.10
232.10
232.10
232.10
232.10
232.10
232.10
232.10
232.10
232.10
232.10
232.10
232.10
232.10
232.10
232.10
232.10
232.10
232.10
232.10
232.10
232.10
232.10
232.10
232.10
232.10
232.10
232.10
232.10
232.10
232.10
232.10
232.10
232.10
232.10
232.10
232.10
232.10
232.10
232.10
232.10
232.10
232.10
232.10
232.10
232.10
232.10
232.10
232.10
232.10
232.10
232.10
232.10
232.10
232.10
232.10
232.10
232.10
232.10
232.10
232.10
232.10
232.10
232.10
232.10
232.10
232.10
232.10
232.10
232.10
232.10
232.10
232.10
232.10
232.10
232.10
232.10
232.10
232.10
232.10
232.10
232.10
232.10
232.10
232.10
232.10
232.10
232.10
232.10
232.10
232.10
232.10
232.10
232.10
232.10
232.10
232.10
232.10
232.10
232.10
232.10
232.10
232.10
232.10
232.10
232.10
232.10
232.10
232.10
232.10
232.10
232.10
232.10
232.10
232.10
232.10
232.10
232.10
232.10
232.10
232.10
232.10
232.10
232.10
232.10
232.10
232.10
232.10
232.10
232.10
232.10
232.10
232.10
232.10
232.10
232.10
232.10
232.10
232.10
232.10
232.10
232.10
232.10
232.10
232.10
232.10
232.10
232.10
232.10
232.10
232.10
232.10
232.10
232.10
232.10
232.10
232.10
232.10
232.10
232.10
232.10
232.10
232.10
232.10
232.10
232.10
232.10
232.10
232.10
232.10
232.10
232.10
232.10
232.10
232.10
232.10
232.10
232.10
232.10
232.10
232.10
232.10
232.10
232.10
232.10
232.10
232.10
232.10
232.10
232.10
232.10
232.10
232.10
232.10
232.10
232.10
232.10
232.10
232.10
232.10
232.10
232.10
232.10
232.10
232.10
232.10
232.10
232.10
232.10
232.10
232.10
232.10
232.10
232.10
232.10
232.10
232.10
232.10
232.10
232.10
232.10
232.10
232.10
232.10
232.10
232.10
232.10
232.10
232.10
232.10
232.10
232.10
232.10
232.10
232.10
232.10
232.10
232.10
232.10
232.10
232.10
232.10
232.10
232.10
232.10
232.10
232.10
232.10
232.10
232.10
232.10
232.10
232.10
232.10
232.10
232.10
232.10
232.10
232.10
232.10
232.10
232.10
232.10
232.10
232.10
232.10
232.10
232.10
232.10
232.10
232.10
232.10
232.10
232.10
232.10
232.10
232.10
232.10
232.10
232.10
232.10
232.10
232.10
232.10
232.10
232.10
232.10
232.10
232.10
232.10
232.10
232.10
232.10
232.10
232.10
232.10
232.10
232.10
232.10
232.10
232.10
232.10
232.10
232.10
232.10
232.10
232.10
232.10
232.10
232.10
232.10
232.10
232.10
232.10
232.10
232.10
232.10
232.10
232.10
232.10
232.10
232.10
232.10
232.10
232.10
232.10
232.10
232.10
232.10
232.10
232.10
232.10
232.10
232.10
232.10
232.10
232.10
232.10
232.10
232.10
232.10
232.10
232.10
232.10
232.10
232.10
232.10
232.10
232.10
232.10
232.10
232.10
232.10
232.10
232.10
232.10
232.10
232.10
232.10
232.10
232.10
232.10
232.10
232.10
232.10
232.10
232.10
232.10
232.10
232.10
232.10
232.10
232.10
232.10
232.10
232.10
232.10
232.10
232.10
232.10
232.10
232.10
232.10
232.10
232.10
232.10
232.10
232.10
232.10
232.10
232.10
232.10
232.10
232.10
232.10
232.10
232.10
232.10
232.10
232.10
232.10
232.10
232.10
232.10
232.10
232.10
232.10
232.10
232.10
232.10
232.10
232.10
232.10
232.10
232.10
232.10
232.10
232.10
232.10
232.10
232.10
232.10
232.10
232.10
232.10
232.10
232.10
232.10
232.10
232.10
232.10
232.10
232.10
232.10
232.10
232.10
232.10
232.10
232.10
232.10
232.10
232.10
232.10
232.10
232.10
232.10
232.10
232.10
232.10
232.10
232.10
232.10
232.10
232.10
232.10
232.10
232.10
232.10
232.10
232.10
232.10
232.10
232.10
232.10
232.10
232.10
232.10
232.10
232.10
232.10
232.10
232.10
232.10
232.10
232.10
232.10
232.10
232.10
232.10
232.10
232.10
232.10
232.10
232.10
232.10
232.10
232.10
232.10
232.10
232.10
232.10
232.10
232.10
232.10
232.10
232.10
232.10
232.10
232.10
232.10
232.10
232.10
232.10
232.10
232.10
232.10
232.10
232.10
232.10
232.10
232.10
232.10
232.10
232.10
232.10
232.10
232.10
232.10
232.10
232.10
232.10
232.10
232.10
232.10
232.10
232.10
232.10
232.10
232.10
232.10
232.10
232.10
232.10
232.10
232.10
232.10
232.10
232.10
232.10
232.10
232.10
232.10
232.10
232.10
232.10
232.10
232.10
232.10
232.10
232.10
232.10
232.10
232.10
232.10
232.10
232.10
232.10
232.10
232.10
232.10
232.10
232.10
232.10
232.10
232.10
232.10
232.10
232.10
232.10
232.10
232.10
232.10
232.10
232.10
232.10
232.10
232.10
232.10
232.10
232.10
232.10
232.10
232.10
232.10
232.10
232.10
232.10
232.10
232.10
232.10
232.10
232.10
232.10
232.10
232.10
232.10
232.10
232.10
232.10
232.10
232.10
232.10
232.10
232.10
232.10
232.10
232.10
232.10
232.10
232.10
232.10
232.10
232.10
232.10
232.10
232.10
232.10
232.10
232.10
232.10
232.10
232.10
232.10
232.10
232.10
232.10
232.10
232.10
232.10
final result:
0011110000
0.0268.sec
